solving instance uflp nlass holmberg 52 log
Set parameter TokenServer to value "licences.gerad.lan"
Set parameter MIPGap to value 1e-06
Set parameter FuncPieceError to value 1e-06
Set parameter Threads to value 1
Set parameter FuncPieces to value -2
Set parameter TimeLimit to value 3600
Gurobi Optimizer version 12.0.2 build v12.0.2rc0 (linux64 - "AlmaLinux 9.6 (Sage Margay)")

CPU model: Intel(R) Xeon(R) Gold 6258R CPU @ 2.70GHz, instruction set [SSE2|AVX|AVX2|AVX512]
Thread count: 56 physical cores, 56 logical processors, using up to 1 threads

Non-default parameters:
TimeLimit  3600
MIPGap  1e-06
Threads  1
FuncPieces  -2
FuncPieceError  1e-06

Optimize a model with 4100 rows, 5010 columns and 9000 nonzeros
Model fingerprint: 0x096f19a8
Model has 1000 function constraints treated as nonlinear
  1000 LOG
Variable types: 4000 continuous, 1010 integer (1010 binary)
Coefficient statistics:
  Matrix range     [1e+00, 2e+02]
  Objective range  [1e+00, 5e+02]
  Bounds range     [1e+00, 1e+10]
  RHS range        [1e+00, 1e+00]
Warning: Model contains large bounds
         Consider reformulating model or setting NumericFocus parameter
         to avoid numerical issues.
Warning: x < 1e-10 in domain of log(x).
         Setting lower bound to 1e-10.
Presolve removed 3000 rows and 3000 columns
Presolve time: 0.02s
Presolved: 6100 rows, 2011 columns, 13000 nonzeros
Presolved model has 1000 nonlinear constraint(s)

Solving non-convex MINLP

Variable types: 2001 continuous, 10 integer (10 binary)
Found heuristic solution: objective 18572.000000

Root relaxation: objective 8.166000e+03, 1061 iterations, 0.01 seconds (0.01 work units)

    Nodes    |    Current Node    |     Objective Bounds      |     Work
 Expl Unexpl |  Obj  Depth IntInf | Incumbent    BestBd   Gap | It/Node Time

*    0     0               0    8166.0000000 8166.00000  0.00%     -    0s

Explored 1 nodes (1061 simplex iterations) in 0.04 seconds (0.02 work units)
Thread count was 1 (of 56 available processors)

Solution count 2: 8166 18572 

Optimal solution found (tolerance 1.00e-06)
Best objective 8.166000000000e+03, best bound 8.166000000000e+03, gap 0.0000%

User-callback calls 266, time in user-callback 0.00 sec
reading holmberg data file ../../../../../instances/uflp/holmberg/p52
primal_bound = 8166.0, dual_bound = 8166.0, gap = 0.0, time = 0.05
